(declare-const a Real)
(declare-const b Real)
(declare-const c Real)
(assert (= (+ a b c) 3))
(assert (> a 0))
(assert (> b 0))
(assert (> c 0))
(assert (not (<= (+ (* -1 (pow a 6)) (* -1 (pow b 6)) (* -1 (pow c 6)) (* a (pow b 5)) (* b (pow c 5)) (* c (pow a 5))) 0)))
(check-sat)
(get-model)
(exit)